1459068886873011525501,7,1,2,012,11,1,2,09,3,1,2,014,7,1,2,04,11,1,2,08,8,1,2,014,6,1,2,08,11,1,2,012,3,1,2,015,1,1,2,04,2,1,2,01,9,1,2,012,13,1,2,010,11,1,2,013,8,1,2,01,10,1,2,01,6,1,2,015,5,1,2,08,7,1,2,015,13,1,2,01,2,1,2,014,1,1,2,013,10,1,2,01,13,1,2,04,2,1,2,02,14,1,2,011,3,1,2,07,2,1,2,014,4,1,2,01,6,1,2,05,5,1,2,08,7,1,2,02,8,1,2,015,2,1,2,013,15,1,2,01,7,1,2,012,4,1,2,014,8,1,2,08,15,1,2,03,10,1,2,04,6,1,2,015,6,1,2,010,14,1,2,05,10,1,2,014,10,1,2,01,2,1,2,05,3,1,2,05,3,1,2,010,14,1,2,03,7,1,2,0